Version identifier: 22.1.0.0 | 2022-03-09 | 1a383f8ce
CPXPARAM_Threads                                 1
CPXPARAM_MIP_Strategy_VariableSelect             3
CPXPARAM_TimeLimit                               599.99297561100002
Tried aggregator 1 time.
MIP Presolve eliminated 18 rows and 924 columns.
MIP Presolve modified 3 coefficients.
Reduced MIP has 2150 rows, 2772 columns, and 23568 nonzeros.
Reduced MIP has 2772 binaries, 0 generals, 0 SOSs, and 0 indicators.
Presolve time = 0.03 sec. (14.24 ticks)
Probing time = 0.00 sec. (2.70 ticks)
Tried aggregator 1 time.
Detecting symmetries...
Reduced MIP has 2150 rows, 2772 columns, and 23568 nonzeros.
Reduced MIP has 2772 binaries, 0 generals, 0 SOSs, and 0 indicators.
Presolve time = 0.02 sec. (13.91 ticks)
Probing time = 0.00 sec. (2.70 ticks)
Clique table members: 1529.
MIP emphasis: balance optimality and feasibility.
MIP search method: dynamic search.
Parallel mode: none, using 1 thread.
Root relaxation solution time = 0.03 sec. (22.33 ticks)

        Nodes                                         Cuts/
   Node  Left     Objective  IInf  Best Integer    Best Bound    ItCnt     Gap

      0     0        0.0000   195                      0.0000      579         
*     0+    0                            0.0000        0.0000             0.00%
      0     0        cutoff              0.0000        0.0000      579    0.00%
Elapsed time = 0.31 sec. (197.62 ticks, tree = 0.01 MB, solutions = 1)

Root node processing (before b&c):
  Real time             =    0.31 sec. (197.73 ticks)
Sequential b&c:
  Real time             =    0.00 sec. (0.00 ticks)
                          ------------
Total (root+branch&cut) =    0.31 sec. (197.73 ticks)
Primal:	308
Dual:	308
Status:	Optimal
Time:	0.350344
Sequence:
	9
	6
	9
	9
	9
	9
	5
	9
	9
	9
	6
	9
	5
	9
	9
	9
	6
	9
	9
	9
	9
	6
	9
	9
	5
	9
	9
	9
	9
	6
	9
	9
	9
	9
	6
	9
	9
	9
	6
	9
	9
	9
	6
	9
	5
	9
	9
	9
	6
	9
	9
	9
	6
	9
	5
	9
	9
	6
	9
	9
	5
	9
	6
	9
	9
	9
	9
	5
	9
	6
	9
	9
	9
	9
	9
	6
	9
	9
	9
	6
	9
	9
	9
	6
	9
	9
	5
	9
	5
	9
	6
	9
	9
	9
	5
	9
	5
	9
	9
	9
	9
	6
	4
	9
	5
	9
	0
	1
	4
	5
	0
	4
	9
	4
	6
	9
	5
	4
	9
	6
	0
	3
	9
	4
	5
	9
	6
	0
	9
	5
	0
	10
	4
	6
	9
	4
	5
	9
	0
	5
	4
	9
	1
	4
	1
	9
	6
	2
	5
	9
	6
	0
	5
	9
	4
	6
	9
	10
	4
	6
	0
	3
	4
	6
	9
	1
	9
	0
	6
	9
	9
	5
	2
	6
	9
	9
	5
	0
	6
	4
	3
	0
	9
	6
	4
	1
	9
	6
	0
	5
	9
	6
	9
	5
	0
	4
	5
	9
	6
	2
	9
	1
	4
	1
	9
	9
	6
	0
	4
	5
	9
	6
	9
	10
	9
	9
	6
	9
	9
	0
	1
	9
	6
	9
	5
	9
	9
	6
	9
	5
	9
	6
	0
	5
	9
	6
	0
	9
	4
	5
	2
	9
	6
	4
	9
	10
	0
	6
	9
	1
	2
	6
	4
	9
	4
	6
	9
	9
	5
	9
	6
	9
	4
	2
	4
	6
	0
	4
	4
	9
	9
	4
	6
	9
	4
	0
	5
	9
	6
	0
	3
	9
	9
	5
	4
	0
	6
	9
	0
	4
	6
	2
	5
	9
	6
	9
	5
	0
	6
	4
	9
	4
	1
	9
	6
	2
	4
	5
